22347113034806716195012,10,1,2,07,9,1,2,013,11,1,2,014,2,1,2,013,6,1,2,02,4,1,2,05,14,1,2,06,6,1,2,06,10,1,2,012,13,1,2,07,13,1,2,01,7,1,2,011,9,1,2,015,10,1,2,01,13,1,2,010,9,1,2,03,15,1,2,08,15,1,2,03,4,1,2,09,12,1,2,013,4,1,2,02,6,1,2,09,6,1,2,015,7,1,2,02,9,1,2,07,12,1,2,06,8,1,2,012,14,1,2,08,10,1,2,04,12,1,2,06,13,1,2,08,12,1,2,015,10,1,2,09,11,1,2,08,10,1,2,012,4,1,2,06,12,1,2,014,11,1,2,010,6,1,2,014,5,1,2,02,3,1,2,014,7,1,2,015,10,1,2,08,12,1,2,010,3,1,2,07,2,1,2,09,10,1,2,014,8,1,2,011,4,1,2,03,14,1,2,0